
Gurobi 9.1.2 (win64) logging started Tue Dec  7 11:09:31 2021

Gurobi Optimizer version 9.1.2 build v9.1.2rc0 (win64)
Thread count: 8 physical cores, 8 logical processors, using up to 8 threads
Optimize a model with 1 rows, 19 columns and 18 nonzeros
Model fingerprint: 0x33364775
Variable types: 1 continuous, 18 integer (18 binary)
Coefficient statistics:
  Matrix range     [1e+00, 1e+01]
  Objective range  [1e+00, 1e+00]
  Bounds range     [5e-01, 5e-01]
  RHS range        [1e+01, 1e+01]
Presolve time: 0.00s
Presolved: 1 rows, 19 columns, 18 nonzeros
Variable types: 1 continuous, 18 integer (18 binary)

Root simplex log...

Iteration    Objective       Primal Inf.    Dual Inf.      Time
       0   -4.5801068e-01   8.300240e-01   0.000000e+00     14s
       3   -1.5617234e-01   0.000000e+00   0.000000e+00     14s

Root relaxation: objective -1.561723e-01, 3 iterations, 0.00 seconds

    Nodes    |    Current Node    |     Objective Bounds      |     Work
 Expl Unexpl |  Obj  Depth IntInf | Incumbent    BestBd   Gap | It/Node Time

     0     0   -0.15617    0    1          -   -0.15617      -     -   14s
H    0     0                       0.8636702   -0.15617   118%     -   14s
     0     0     cutoff    0         0.86367    0.86367  0.00%     -   14s

Cutting planes:
  Cover: 1
  MIR: 2
  StrongCG: 1
  Lazy constraints: 3

Explored 1 nodes (8 simplex iterations) in 14.55 seconds
Thread count was 8 (of 8 available processors)

Solution count 1: 0.86367 

Optimal solution found (tolerance 1.00e-04)
Best objective 8.636701568058e-01, best bound 8.636701568058e-01, gap 0.0000%

User-callback calls 87, time in user-callback 18.20 sec
